echo both

units		metal
atom_style	atomic

variable low_temperature equal 0
variable high_temperature equal 3000
variable pressure equal 0

neigh_modify    delay 10 every 1

lattice fcc 3.61 origin 0.0 0.0 0.0 orient x 1 0 0 orient y 0 1 0 orient z 0 0 1
region box block -5 5 -5 5 -5 5 units lattice
create_box 1 box
create_atoms 1 box

pair_style eam/alloy
pair_coeff * * copper.eam.alloy Cu

# equilibrate
min_style cg
min_modify dmax 1.0e-2 line quadratic
fix min all box/relax aniso 0.0 vmax 0.01
minimize 0.0 1.0e-4 10000 10000
unfix min

region liquidRegion block INF INF 0 INF INF INF
group liquid region liquidRegion
region solidRegion block INF INF INF 0 INF INF
group solid region solidRegion

thermo 100
velocity liquid create ${high_temperature} 123456 dist gaussian
velocity solid create ${low_temperature} 123456 dist gaussian
fix nptLiquid liquid npt temp ${high_temperature} ${high_temperature} $(100.0*dt) iso ${pressure} ${pressure} $(1000.0*dt)
fix recenterFix all recenter INIT INIT INIT
reset_timestep 0
run 5000
unfix nptLiquid
unfix recenterFix

fix nptFix all npt temp ${temperature} ${temperature} $(100.0*dt) iso ${pressure} ${pressure} $(1000.0*dt)
fix recenterFix all recenter INIT INIT INIT
dump equilibration all atom 100 equil_${temperature}.dump
reset_timestep 0
run 20000
unfix nptFix
undump equilibration
unfix recenterFix